%chk=cdim2p.chk
# b3lyp/3-21g opt

Title Card Required

0 1
 C                 -2.05658021    1.64108723    0.00000900
 C                 -0.65483021    1.64108723    0.00000900
 C                 -1.38788921    3.80333623   -0.00009500
 N                 -2.49630721    2.96159523    0.00000000
 H                 -3.43663521    3.25229623   -0.00021700
 H                 -2.75816821    0.80785423    0.00010700
 H                 -0.01045721    0.76838123    0.00003400
 H                 -1.49681121    4.88710823   -0.00024200
 N                 -0.23083221    3.01188323    0.00000900
 Cd                 1.76198223    3.70527388   -0.00003963



