%chk=water.chk
# b3lyp/6-31g*

Title Card Required

0 1
 O                 -2.54062035   -0.22895125    0.00000000
 H                 -1.58062035   -0.22895125    0.00000000
 H                 -2.86107494    0.67598458    0.00000000



